# Objective value = 49994
x.0.0 0
x.0.1 0
x.0.2 0
x.0.3 0
x.0.4 0
x.1.0 0
x.1.1 0
x.1.2 1
x.1.3 0
x.1.4 0
x.2.0 1
x.2.1 0
x.2.2 0
x.2.3 1
x.2.4 0
x.3.0 0
x.3.1 0
x.3.2 0
x.3.3 0
x.3.4 1
d.0.1 1
d.0.2 2
d.0.3 1
d.1.2 1
d.1.3 0
d.2.3 1
g.0 0
g.1 1
g.2 0
g.3 0
g.4 0
Zero 0
